n_res = 5;
n_events = 102;
n_prec = 655;
source = 1;
sink = 102;
min_lvl = [0, -11, -6, -7, -15];
max_lvl = [8, 1, 6, 2, 1];
rr = [| 0, 0, 0, 1, 2, -1, 0, 0, -1, 1, -1, 0, 0, -2, 0, 1, -1, -1, 2, 2, 0, 1, 0, 2, 0, 0, 0, 1, 0, 0, 0, -1, 0, 1, 0, 0, 0, 2, 0, 0, 0, -1, 0, 2, 1, 1, -1, 2, 1, 0, -2, -2, 1, 2, -1, -1, -1, 0, 0, -1, 0, -1, 0, 0, -1, 1, -2, 1, -1, 0, -2, 0, 2, 0, -2, 0, 0, -2, 2, -2, -1, 2, 2, 0, 0, 2, 0, -1, -1, 1, 2, 2, 0, 0, 0, -2, 0, 0, 1, -2, -1, 0
      | 0, -1, 0, 0, 0, 0, 0, 2, -1, 0, 2, 1, -2, 0, -1, 0, -1, -1, -1, 1, 0, 0, 0, 1, 1, 0, 0, 1, 1, 1, 1, 2, -2, -2, -1, 0, 0, 0, 0, 0, 0, 0, -2, 0, 0, 0, -2, 0, -2, 0, 0, 2, -1, -2, 0, 1, 0, -2, 0, -2, -2, 1, -1, -2, 0, 2, 0, -1, 0, 0, 0, 0, 0, 1, -1, -2, -1, -1, -1, 0, 1, 0, 2, 1, 0, 0, -2, 0, -2, 1, 2, 2, 2, -2, 0, 2, -1, 2, 0, 1, 1, 0
      | 0, -1, 0, 2, 0, -1, 0, -1, 1, 1, 0, 2, 0, 1, -1, 0, 1, -1, 0, 0, 1, -2, -1, 2, -1, 0, 0, 0, 2, 0, 1, -1, 0, -2, -2, 1, -2, 1, 2, 0, -1, 1, 0, 2, 0, 0, -1, 1, 2, 0, 2, 0, -1, 2, 0, 1, 0, -1, 2, 1, -2, -1, -2, 0, 1, 0, 0, 2, -1, -1, 1, 2, -2, 1, -2, 0, -2, -1, -1, -2, -1, 0, 1, 0, 0, 1, 2, 2, 1, 1, 0, -1, -1, -1, 1, -2, 0, 0, 2, -1, 0, 0
      | 0, -1, 0, 1, 2, -1, -2, 0, -2, 2, 0, -2, 0, -2, 0, -2, 2, 0, -2, 0, -2, 0, 2, -1, 1, 0, 0, -2, 0, 2, -2, 0, 0, 0, -2, -1, 0, -2, 2, -1, 0, 1, 0, 0, 2, 0, -2, -1, 2, -1, 0, 0, 1, 0, 0, 2, 0, 0, 2, -1, 0, -1, 0, -1, 0, 2, -2, 1, -1, -1, 1, 0, 0, 2, 1, 1, -1, -2, -1, -2, -1, 2, -2, 0, 2, -1, 0, 2, 2, 0, 0, 0, 0, 0, 0, 1, 0, 2, 0, 0, 2, 0
      | 0, 0, -1, 0, 0, 0, -2, 0, -2, 0, -2, 1, 0, 2, 0, 0, 0, 2, 1, 0, 0, 0, 2, -1, -1, 0, 2, -2, 0, 0, 1, 2, -2, 1, -2, 2, 0, 0, 1, -2, -1, 0, -2, -2, 0, 0, 2, -1, 0, 0, -2, 2, 0, 0, 0, -1, 0, 0, 1, -1, -2, 1, -1, 2, -2, 0, 0, 1, 0, 2, 2, -2, 1, -2, 0, -1, 0, 0, -1, 2, -2, -2, 0, 0, -2, 0, 0, 0, 0, 0, 0, -1, -2, 2, 0, -1, -1, 1, 0, -2, 0, 0 |];
prec = [| 1, 0, 64
        | 1, 0, 2
        | 1, 0, 3
        | 1, 0, 36
        | 2, 18, 77
        | 2, 2, 24
        | 2, 10, 38
        | 2, 12, 4
        | 2, 18, 14
        | 3, 15, 49
        | 3, 2, 86
        | 3, 0, 69
        | 3, 6, 75
        | 3, -4, 36
        | 3, 3, 11
        | 3, 4, 52
        | 3, 8, 47
        | 4, 4, 77
        | 4, 10, 71
        | 4, -1, 100
        | 4, 9, 86
        | 4, -2, 99
        | 4, -273, 8
        | 4, 11, 101
        | 5, 17, 71
        | 5, -6, 99
        | 5, 22, 89
        | 5, 0, 38
        | 5, 18, 82
        | 6, 2, 86
        | 6, 3, 27
        | 6, 0, 55
        | 6, 1, 43
        | 7, -310, 23
        | 7, -257, 85
        | 7, -239, 30
        | 7, -218, 92
        | 7, -150, 49
        | 7, -282, 53
        | 7, 3, 101
        | 7, -1, 73
        | 7, 0, 24
        | 7, 3, 43
        | 7, 1, 9
        | 7, -322, 18
        | 7, 0, 71
        | 7, -179, 61
        | 7, 4, 57
        | 7, -310, 34
        | 7, -159, 91
        | 7, -308, 25
        | 8, 0, 86
        | 8, 0, 12
        | 8, 3, 42
        | 8, 0, 22
        | 9, 3, 83
        | 9, 1, 72
        | 9, -60, 75
        | 9, -69, 22
        | 9, -67, 70
        | 9, 14, 98
        | 9, 26, 65
        | 10, -3, 61
        | 10, -185, 23
        | 10, 20, 68
        | 10, 18, 50
        | 11, 1, 83
        | 11, 20, 55
        | 11, 19, 20
        | 11, 0, 12
        | 11, 0, 89
        | 11, -21, 94
        | 11, -4, 42
        | 11, 13, 71
        | 11, 6, 81
        | 11, -23, 24
        | 12, -2, 99
        | 12, 24, 86
        | 12, -8, 71
        | 12, -344, 8
        | 12, 27, 40
        | 12, -235, 58
        | 12, -338, 81
        | 12, -352, 89
        | 12, -319, 38
        | 12, -277, 87
        | 13, 24, 74
        | 13, -246, 46
        | 13, -164, 12
        | 13, 2, 99
        | 13, -298, 68
        | 13, -300, 8
        | 13, -354, 86
        | 14, 18, 27
        | 14, -2, 51
        | 14, 13, 63
        | 14, 15, 90
        | 14, -4, 93
        | 14, 17, 5
        | 14, -1, 40
        | 15, -34, 80
        | 15, -3, 69
        | 15, -33, 39
        | 15, 4, 90
        | 15, 0, 98
        | 15, 14, 62
        | 16, 25, 70
        | 16, 1, 43
        | 16, 0, 97
        | 16, -7, 58
        | 16, 14, 98
        | 16, 12, 30
        | 17, 4, 37
        | 17, -262, 96
        | 17, -195, 32
        | 17, 4, 67
        | 17, -146, 92
        | 18, -3, 20
        | 18, -3, 45
        | 18, 0, 35
        | 18, 11, 40
        | 19, -4, 90
        | 19, 14, 22
        | 19, 11, 59
        | 19, 13, 15
        | 19, -47, 60
        | 19, -46, 44
        | 19, 10, 69
        | 19, 2, 83
        | 19, 7, 73
        | 19, 2, 75
        | 19, -58, 63
        | 20, 0, 37
        | 20, -29, 33
        | 20, -32, 11
        | 20, 10, 78
        | 20, -39, 24
        | 20, 9, 73
        | 20, 0, 40
        | 21, -211, 30
        | 21, -1, 34
        | 21, 6, 66
        | 21, -6, 98
        | 21, 13, 27
        | 21, -187, 96
        | 21, -4, 62
        | 21, -2, 11
        | 21, 8, 42
        | 21, 18, 68
        | 22, 3, 65
        | 22, -7, 83
        | 22, 23, 73
        | 22, -33, 47
        | 23, -1, 51
        | 23, 4, 57
        | 23, -1, 85
        | 23, 1, 72
        | 24, -1, 94
        | 24, 6, 5
        | 24, 0, 86
        | 25, 7, 61
        | 25, -2, 40
        | 25, -2, 37
        | 26, 0, 27
        | 26, 0, 25
        | 26, 1, 29
        | 26, 1, 72
        | 26, 3, 98
        | 26, 0, 13
        | 26, 0, 57
        | 26, -310, 51
        | 26, 0, 87
        | 27, 22, 89
        | 27, 19, 38
        | 27, 7, 77
        | 27, -4, 8
        | 27, -5, 100
        | 28, -55, 54
        | 28, 1, 87
        | 28, -55, 84
        | 28, -40, 3
        | 28, 12, 70
        | 28, -46, 56
        | 28, -41, 64
        | 28, 1, 18
        | 28, -45, 41
        | 29, 25, 38
        | 29, 15, 13
        | 29, -183, 4
        | 30, -3, 7
        | 30, 6, 81
        | 30, 1, 76
        | 30, 6, 47
        | 30, -3, 87
        | 31, 2, 25
        | 31, 1, 87
        | 31, 2, 100
        | 31, 0, 95
        | 31, 1, 68
        | 32, 15, 97
        | 32, 17, 88
        | 32, 3, 23
        | 32, 9, 85
        | 32, 5, 20
        | 33, 4, 11
        | 34, 0, 49
        | 34, -302, 67
        | 34, 3, 27
        | 34, -213, 97
        | 34, 3, 89
        | 34, 2, 8
        | 34, 1, 7
        | 34, 2, 26
        | 34, 1, 58
        | 34, -173, 53
        | 34, 1, 78
        | 34, 2, 65
        | 34, 2, 68
        | 34, 1, 43
        | 34, -225, 18
        | 34, -297, 21
        | 35, -3, 12
        | 35, -186, 95
        | 35, -6, 51
        | 35, -206, 50
        | 35, -287, 32
        | 35, -273, 16
        | 35, 5, 57
        | 35, -186, 53
        | 35, 2, 69
        | 35, -147, 67
        | 36, 5, 81
        | 36, 0, 25
        | 36, -54, 3
        | 36, 0, 88
        | 36, 0, 64
        | 36, 3, 53
        | 36, 4, 42
        | 37, 0, 88
        | 37, 0, 77
        | 37, -39, 20
        | 37, -28, 11
        | 37, -30, 94
        | 37, 7, 46
        | 37, 8, 98
        | 37, 6, 90
        | 38, 4, 13
        | 38, 4, 101
        | 38, 0, 12
        | 38, 1, 71
        | 38, 1, 98
        | 39, 3, 15
        | 39, -1, 75
        | 39, 11, 47
        | 39, 3, 70
        | 39, 6, 62
        | 39, 6, 69
        | 39, -3, 98
        | 39, -4, 9
        | 39, 1, 90
        | 39, 13, 65
        | 39, 2, 72
        | 40, 23, 98
        | 40, -8, 46
        | 40, -299, 82
        | 40, -349, 12
        | 40, -7, 13
        | 40, -8, 74
        | 41, 16, 77
        | 41, -33, 56
        | 41, 4, 84
        | 41, 22, 38
        | 41, -6, 20
        | 41, 23, 75
        | 41, -3, 73
        | 41, -4, 67
        | 41, -47, 54
        | 42, 7, 72
        | 42, 0, 87
        | 42, 8, 89
        | 42, 7, 100
        | 42, 5, 55
        | 42, 0, 22
        | 42, 2, 98
        | 43, 0, 40
        | 43, -4, 99
        | 43, 0, 29
        | 43, 7, 98
        | 43, 9, 38
        | 43, -3, 46
        | 43, 0, 74
        | 44, 3, 19
        | 44, -2, 83
        | 44, 8, 98
        | 44, -49, 79
        | 44, 9, 39
        | 44, -68, 63
        | 45, 2, 27
        | 45, 6, 16
        | 45, 3, 92
        | 46, 0, 86
        | 46, -241, 12
        | 46, -239, 27
        | 46, 8, 71
        | 46, -1, 74
        | 46, -363, 55
        | 46, 9, 98
        | 46, 1, 13
        | 46, 5, 99
        | 47, 0, 75
        | 47, 2, 70
        | 47, 10, 83
        | 47, 0, 22
        | 47, -57, 69
        | 47, 4, 98
        | 47, 3, 72
        | 48, 4, 91
        | 48, 16, 43
        | 48, 0, 11
        | 48, 9, 32
        | 49, 1, 7
        | 49, -157, 61
        | 49, -265, 2
        | 49, 6, 20
        | 49, 0, 11
        | 49, 1, 47
        | 49, -1, 40
        | 49, -166, 25
        | 49, -260, 32
        | 49, -226, 14
        | 49, 3, 13
        | 49, 2, 83
        | 49, 0, 81
        | 49, 4, 5
        | 49, 5, 4
        | 49, 5, 75
        | 50, -147, 96
        | 50, -4, 89
        | 50, -187, 23
        | 50, -3, 40
        | 50, 25, 101
        | 50, 2, 91
        | 50, 20, 67
        | 51, 4, 93
        | 51, 10, 58
        | 51, -298, 30
        | 51, 7, 70
        | 51, -309, 96
        | 51, 8, 25
        | 52, 0, 31
        | 53, 11, 89
        | 53, -2, 17
        | 53, -4, 83
        | 53, 6, 86
        | 53, -3, 100
        | 53, 8, 35
        | 53, 18, 7
        | 54, 0, 41
        | 54, 0, 12
        | 54, -44, 3
        | 54, -32, 56
        | 54, 0, 5
        | 55, -2, 100
        | 55, -8, 78
        | 55, -229, 8
        | 55, -2, 38
        | 56, 4, 9
        | 56, 1, 43
        | 56, -1, 46
        | 56, 0, 13
        | 56, 0, 99
        | 56, 0, 54
        | 57, -1, 22
        | 57, -237, 77
        | 57, 26, 86
        | 57, 12, 43
        | 57, 0, 98
        | 58, 23, 5
        | 58, 23, 73
        | 58, -332, 27
        | 58, 5, 46
        | 58, -3, 57
        | 58, 3, 13
        | 59, -53, 60
        | 59, -74, 63
        | 59, -7, 39
        | 59, 17, 80
        | 59, -2, 83
        | 59, -52, 19
        | 59, -67, 79
        | 59, -47, 44
        | 59, -4, 69
        | 60, 21, 75
        | 60, -45, 63
        | 60, 10, 44
        | 60, 23, 83
        | 60, 6, 98
        | 60, -55, 79
        | 60, -2, 39
        | 61, -173, 53
        | 61, -296, 45
        | 61, 13, 82
        | 61, -2, 24
        | 61, 3, 94
        | 61, -137, 25
        | 61, 13, 71
        | 61, 1, 101
        | 61, 13, 49
        | 61, -269, 2
        | 61, -179, 34
        | 61, 15, 77
        | 61, 0, 83
        | 61, 6, 72
        | 62, 18, 70
        | 62, -28, 90
        | 62, 10, 98
        | 62, -27, 15
        | 62, 10, 69
        | 62, -35, 80
        | 63, 18, 79
        | 63, 9, 22
        | 63, -6, 62
        | 64, 0, 9
        | 64, 2, 94
        | 64, 5, 56
        | 64, 3, 45
        | 64, 6, 84
        | 64, 5, 53
        | 64, -50, 3
        | 64, -1, 88
        | 64, 4, 72
        | 64, -1, 93
        | 65, -68, 73
        | 65, -111, 70
        | 65, -108, 9
        | 65, -93, 47
        | 65, 3, 83
        | 65, 0, 72
        | 65, 3, 98
        | 65, -95, 22
        | 66, -242, 32
        | 66, 12, 98
        | 66, 0, 26
        | 66, 10, 33
        | 66, -2, 47
        | 66, 5, 29
        | 66, 2, 35
        | 66, 3, 51
        | 66, -312, 31
        | 66, -236, 45
        | 66, 11, 46
        | 66, 5, 22
        | 67, 4, 78
        | 67, 5, 4
        | 67, 5, 81
        | 67, -305, 76
        | 67, 0, 7
        | 67, -2, 5
        | 67, 3, 11
        | 67, 4, 21
        | 67, -155, 17
        | 67, -323, 16
        | 67, 3, 6
        | 67, -302, 91
        | 67, 9, 94
        | 68, -327, 55
        | 68, 11, 5
        | 68, 9, 87
        | 69, 0, 47
        | 69, -1, 73
        | 69, 1, 83
        | 69, 1, 9
        | 69, 0, 75
        | 69, 7, 65
        | 69, 3, 98
        | 70, 3, 83
        | 70, 4, 98
        | 70, 1, 75
        | 70, 2, 9
        | 71, 18, 86
        | 71, -4, 98
        | 71, -146, 40
        | 71, -5, 74
        | 71, -276, 68
        | 71, 8, 99
        | 71, 5, 13
        | 72, 6, 98
        | 73, -91, 69
        | 73, 20, 83
        | 73, 15, 72
        | 73, -99, 70
        | 73, 16, 98
        | 73, -76, 75
        | 73, -98, 47
        | 73, -6, 65
        | 73, -2, 9
        | 74, 9, 99
        | 75, 1, 22
        | 75, -5, 83
        | 75, -72, 47
        | 75, 23, 98
        | 75, 16, 72
        | 75, 14, 73
        | 75, 11, 9
        | 75, 27, 65
        | 76, 2, 26
        | 76, 3, 93
        | 76, -272, 30
        | 76, 0, 27
        | 76, 0, 40
        | 76, 2, 48
        | 77, -261, 27
        | 77, -9, 81
        | 77, -373, 78
        | 77, 9, 82
        | 77, 13, 83
        | 77, -6, 86
        | 77, -242, 89
        | 77, 13, 72
        | 77, 7, 38
        | 78, 5, 81
        | 78, -142, 6
        | 78, 20, 38
        | 78, -6, 71
        | 78, 6, 82
        | 78, 20, 40
        | 78, 22, 68
        | 79, 17, 59
        | 79, 3, 19
        | 79, 18, 60
        | 79, 10, 39
        | 79, 9, 90
        | 80, 7, 72
        | 80, 16, 98
        | 80, 16, 39
        | 80, 3, 9
        | 80, 10, 47
        | 80, 10, 75
        | 80, 2, 15
        | 80, -1, 22
        | 81, 12, 71
        | 81, 17, 101
        | 81, -293, 77
        | 81, 24, 57
        | 82, -198, 87
        | 82, 4, 81
        | 82, -208, 55
        | 82, 2, 40
        | 82, 24, 100
        | 82, 5, 83
        | 82, 2, 99
        | 83, 2, 72
        | 83, 3, 98
        | 84, 23, 28
        | 84, 8, 40
        | 84, 20, 70
        | 84, -26, 41
        | 84, -6, 68
        | 84, -16, 3
        | 84, -35, 54
        | 84, 24, 81
        | 85, 0, 70
        | 85, -2, 61
        | 85, 0, 47
        | 85, 3, 10
        | 85, -130, 95
        | 85, -219, 18
        | 85, -3, 29
        | 86, -323, 12
        | 86, 8, 13
        | 86, -356, 46
        | 86, 2, 99
        | 86, -365, 71
        | 86, -291, 57
        | 86, 5, 74
        | 87, 16, 101
        | 87, 13, 100
        | 87, 14, 77
        | 87, 6, 71
        | 87, 23, 65
        | 87, -7, 58
        | 87, -232, 78
        | 88, 9, 68
        | 88, 9, 6
        | 88, -35, 24
        | 88, 6, 9
        | 88, -32, 20
        | 88, 10, 5
        | 88, -40, 11
        | 88, -32, 33
        | 88, -39, 37
        | 88, 6, 46
        | 89, 2, 9
        | 89, 4, 4
        | 89, 0, 98
        | 89, 3, 83
        | 89, 4, 71
        | 89, 5, 12
        | 90, 1, 22
        | 90, 3, 62
        | 90, 2, 70
        | 90, 2, 72
        | 90, 3, 65
        | 90, 3, 47
        | 90, 0, 69
        | 90, 0, 75
        | 90, -39, 15
        | 91, -4, 92
        | 91, 0, 82
        | 91, -206, 16
        | 91, 4, 13
        | 91, 0, 68
        | 91, -1, 5
        | 92, 11, 13
        | 92, -2, 75
        | 92, -282, 50
        | 92, 4, 53
        | 92, -223, 10
        | 92, -157, 31
        | 92, 0, 77
        | 93, -255, 53
        | 93, 2, 47
        | 93, 17, 34
        | 93, 18, 61
        | 93, -241, 32
        | 93, -252, 14
        | 94, 2, 33
        | 94, 0, 12
        | 94, 1, 87
        | 94, 3, 6
        | 95, -208, 45
        | 95, 12, 23
        | 95, 14, 86
        | 95, -243, 97
        | 95, 18, 40
        | 95, 3, 91
        | 96, 24, 52
        | 96, 19, 31
        | 96, 5, 87
        | 96, -3, 98
        | 96, 18, 88
        | 96, -200, 30
        | 97, 2, 96
        | 97, 8, 34
        | 97, 10, 55
        | 97, -6, 99
        | 97, 16, 67
        | 98, 7, 102
        | 99, 5, 102
        | 100, 6, 102
        | 101, -336, 27
        | 101, 4, 102
        | 101, -196, 38
        | 101, -214, 57
        | 101, -384, 78 |];
